12231.0 1398743.0 
12250.0 1398338.0 
12513.0 1374637.0 
12201.0 1401158.0 
12390.0 1382347.0 
12199.0 1415919.0 
12325.0 1382976.0 
12177.0 1418736.0 
12444.0 1375919.0 
12290.0 1391901.0 
12391.0 1381358.0 
12280.0 1396362.0 
12404.0 1377205.0 
12186.0 1416921.0 
12174.0 1427139.0 
12225.0 1400560.0 
12321.0 1383911.0 
